Data path: /scratch/opt/lxu/CFLG/benchmarks/tree_B
Instance: treeB.250.50
Result path: /scratch/opt/lxu/CFLG/results/tree_B
Solver: Gurobi
Time limit: 7200
Formulation: LEFPAI
Cover: Large
julia --project=. src/main.jl /scratch/opt/lxu/CFLG/benchmarks/tree_B treeB.250.50 /scratch/opt/lxu/CFLG/results/tree_B Gurobi 7200 LEFPAI Large
The latest version of Julia in the `release` channel is 1.11.6+0.x64.linux.gnu. You currently have `1.11.4+0.x64.linux.gnu` installed. Run:

  juliaup update

in your terminal shell to install Julia 1.11.6+0.x64.linux.gnu and update the `release` channel to that version.
/scratch/opt/lxu/CFLG/benchmarks/tree_B Gurobi 7200.0 /scratch/opt/lxu/CFLG/results/tree_B treeB.250.50 LEFPAI Large
/scratch/opt/lxu/CFLG/benchmarks/tree_B/treeB.250.50

 read graph
data loaded

problem_graph/original graph: node: 250/250 edge: 299/299 dlt: 3.058442300414472 break_avg_len: 1.529221150207236 break_max_len: 1.98423584931659Vbar/V, Ebar/E(137, 250, 186, 299)
Set parameter TokenServer to value "solice01.zib.de"
Set parameter Threads to value 1
Set parameter OutputFlag to value 1
Gurobi Optimizer version 12.0.1 build v12.0.1rc0 (linux64 - "Debian GNU/Linux 12 (bookworm)")

CPU model: Intel(R) Xeon(R) Gold 5222 CPU @ 3.80GHz, instruction set [SSE2|AVX|AVX2|AVX512]
Thread count: 8 physical cores, 16 logical processors, using up to 1 threads

Non-default parameters:
Threads  1

Optimize a model with 419 rows, 702 columns and 1170 nonzeros
Model fingerprint: 0xa9cedc15
Coefficient statistics:
  Matrix range     [1e+00, 1e+00]
  Objective range  [1e+00, 1e+00]
  Bounds range     [1e+00, 1e+00]
  RHS range        [1e+00, 1e+00]
Presolve removed 184 rows and 228 columns
Presolve time: 0.00s
Presolved: 235 rows, 474 columns, 758 nonzeros

Iteration    Objective       Primal Inf.    Dual Inf.      Time
       0    2.3400000e+02   1.340000e+02   0.000000e+00      0s
      98    1.3700000e+02   0.000000e+00   0.000000e+00      0s

Solved in 98 iterations and 0.00 seconds (0.00 work units)
Optimal objective  1.370000000e+02

User-callback calls 177, time in user-callback 0.00 sec
elapsed CPU time: 1.015609 seconds
Set parameter TokenServer to value "solice01.zib.de"
Set parameter Threads to value 1
Set parameter OutputFlag to value 1
Set parameter MIPGap to value 0.0001
Set parameter TimeLimit to value 7198.984391

 more cuts: false 3.058442300414472 false
is_attach:trueformulation:LEFPAI0 234 185

 model loaded

Gurobi Optimizer version 12.0.1 build v12.0.1rc0 (linux64 - "Debian GNU/Linux 12 (bookworm)")

CPU model: Intel(R) Xeon(R) Gold 5222 CPU @ 3.80GHz, instruction set [SSE2|AVX|AVX2|AVX512]
Thread count: 8 physical cores, 16 logical processors, using up to 1 threads

Non-default parameters:
TimeLimit  7198.984391
Threads  1

Optimize a model with 5309 rows, 4305 columns and 14293 nonzeros
Model fingerprint: 0x8334c3d9
Model has 3184 simple general constraints
  3184 INDICATOR
Variable types: 653 continuous, 3652 integer (3652 binary)
Coefficient statistics:
  Matrix range     [1e-01, 3e+00]
  Objective range  [1e+00, 1e+00]
  Bounds range     [1e-01, 3e+00]
  RHS range        [1e-01, 5e+00]
  GenCon rhs range [9e-04, 3e+00]
  GenCon coe range [1e+00, 1e+00]
Presolve removed 125 rows and 1328 columns
Presolve time: 0.20s
Presolved: 5184 rows, 2977 columns, 26273 nonzeros
Variable types: 346 continuous, 2631 integer (2631 binary)
Found heuristic solution: objective 166.0000000
Found heuristic solution: objective 133.0000000

Root relaxation: objective 4.286729e+01, 1939 iterations, 0.03 seconds (0.04 work units)

    Nodes    |    Current Node    |     Objective Bounds      |     Work
 Expl Unexpl |  Obj  Depth IntInf | Incumbent    BestBd   Gap | It/Node Time

     0     0   42.86729    0  212  133.00000   42.86729  67.8%     -    0s
H    0     0                     103.0000000   42.86729  58.4%     -    0s
H    0     0                      64.0000000   42.86729  33.0%     -    0s
H    0     0                      60.0000000   42.86729  28.6%     -    0s
     0     0   48.50000    0  199   60.00000   48.50000  19.2%     -    0s
     0     0   49.00000    0  273   60.00000   49.00000  18.3%     -    0s
     0     0   49.00000    0  246   60.00000   49.00000  18.3%     -    0s
     0     0   49.00000    0  204   60.00000   49.00000  18.3%     -    0s
H    0     0                      59.0000000   49.00000  16.9%     -    0s
H    0     0                      58.0000000   49.00000  15.5%     -    0s
H    0     0                      57.0000000   49.00000  14.0%     -    0s
     0     0   49.00000    0  179   57.00000   49.00000  14.0%     -    0s
     0     0   49.00000    0  229   57.00000   49.00000  14.0%     -    0s
H    0     0                      56.0000000   49.00000  12.5%     -    0s
     0     0   49.00000    0  189   56.00000   49.00000  12.5%     -    0s
     0     0   49.00546    0  139   56.00000   49.00546  12.5%     -    0s
     0     0   49.01670    0  144   56.00000   49.01670  12.5%     -    0s
     0     0   49.01670    0  161   56.00000   49.01670  12.5%     -    0s
     0     0   49.08526    0  217   56.00000   49.08526  12.3%     -    0s
H    0     0                      55.0000000   49.08526  10.8%     -    0s
     0     0   49.08526    0  184   55.00000   49.08526  10.8%     -    0s
     0     0   49.12500    0  243   55.00000   49.12500  10.7%     -    0s
     0     0   49.12500    0  192   55.00000   49.12500  10.7%     -    0s
     0     0   49.12500    0  211   55.00000   49.12500  10.7%     -    0s
     0     0   49.12500    0  222   55.00000   49.12500  10.7%     -    0s
     0     0   49.26389    0  131   55.00000   49.26389  10.4%     -    1s
H    0     0                      54.0000000   49.37500  8.56%     -    1s
     0     0   49.37500    0  183   54.00000   49.37500  8.56%     -    1s
     0     0   49.37500    0  196   54.00000   49.37500  8.56%     -    1s
     0     0   49.37500    0  195   54.00000   49.37500  8.56%     -    1s
     0     0   49.37500    0  130   54.00000   49.37500  8.56%     -    1s
     0     0   49.37500    0  134   54.00000   49.37500  8.56%     -    1s
H    0     0                      53.0000000   49.37500  6.84%     -    1s
     0     2   49.37500    0  115   53.00000   49.37500  6.84%     -    1s
   646   449   51.00000    8   95   53.00000   51.00000  3.77%  49.5    5s
H  882   373                      52.0000000   51.00000  1.92%  84.0    9s

Cutting planes:
  Gomory: 20
  Cover: 29
  Implied bound: 22
  Clique: 3
  MIR: 36
  Mixing: 2
  StrongCG: 3
  Flow cover: 102
  GUB cover: 14
  Zero half: 3
  RLT: 14
  Relax-and-lift: 7
  BQP: 2

Explored 886 nodes (96056 simplex iterations) in 9.84 seconds (8.67 work units)
Thread count was 1 (of 16 available processors)

Solution count 10: 52 53 54 ... 60

Optimal solution found (tolerance 1.00e-04)
Best objective 5.200000000000e+01, best bound 5.200000000000e+01, gap 0.0000%

User-callback calls 6352, time in user-callback 0.01 sec

 sepatime0 0 0
52.0
Stat(MathOptInterface.OPTIMAL, 52.0, 52.0, 0.0, 0.0, 1.015609, 9.840759992599487, 886, Main.CFLG.LEFPAI, "", #undef)
